SAT
81 80 -40 -124 122 111 20 115 -19 -91 -87 -83 71 -64 54 118 -75 -55 -1 109 92 -53 31 -24 74 95 102 125 110 -62 63 98 69 -85 45 116 -60 -18 -36 123 46 -6 -48 26 27 28 4 -30 104 14 -96 78 3 99 -5 -94 -97 23 -42 -34 12 66 61 106 -44 -43 59 89 -108 -113 101 -112 -114 57 121 17 -105 -67 -51 -79 -117 -72 -76 52 15 11 33 93 -22 -9 65 8 88 70 -107 77 90 -41 35 -25 -120 16 68 2 82 -21 -119 -86 -84 39 -50 -58 -13 38 -49 -47 -7 -73 56 -37 -103 10 32 -29 -100 0
